NAME : tsp40_26.212.tour
COMMENT : Length = 212
COMMENT : Found by LKH [Keld Helsgaun]
TYPE : TOUR
DIMENSION : 40
TOUR_SECTION
1
19
22
21
9
34
2
5
8
24
38
29
7
32
30
33
11
6
39
18
16
40
27
3
10
13
35
14
15
23
26
4
12
25
28
31
20
37
17
36
-1
EOF
